Instance Name : rc208
Date : 2022-07-18
Solution
Route 1 : 61 81 94 93 71 72 41 42 44 43 40 36 35 37 38 39 54 96
Route 2 : 90 65 82 99 52 83 64 49 19 18 48 21 23 25 77 58 75 97 59 87 74 86 57 24 22 20 66
Route 3 : 92 95 67 62 50 34 31 29 27 26 28 30 32 33 76 89 63 85 51 84 56 91 80
Route 4 : 69 98 88 2 6 7 79 73 78 12 14 47 17 16 15 13 9 11 10 53 60 8 46 4 45 5 3 1 70 100 55 68
